MARKOV
196
 2 2 2 2 2 2 2 2 2 2 2 2 2 2 2 2 2 2 2 2 2 2 2 2 2 2 2 2 2 2 2 2 2 2 2 2 2 2 2 2 2 2 2 2 2 2 2 2 2 2 2 2 2 2 2 2 2 2 2 2 2 2 2 2 2 2 2 2 2 2 2 2 2 2 2 2 2 2 2 2 2 2 2 2 2 2 2 2 2 2 2 2 2 2 2 2 2 2 2 2 2 2 2 2 2 2 2 2 2 2 2 2 2 2 2 2 2 2 2 2 2 2 2 2 2 2 2 2 2 2 2 2 2 2 2 2 2 2 2 2 2 2 2 2 2 2 2 2 2 2 2 2 2 2 2 2 2 2 2 2 2 2 2 2 2 2 2 2 2 2 2 2 2 2 2 2 2 2 2 2 2 2 2 2 2 2 2 2 2 2 2 2 2 2 2 2
201
3	21 74 195 
3	39 194 195 
1	194 
3	71 88 193 
3	42 192 193 
3	16 191 192 
3	95 190 191 
3	82 189 190 
3	70 188 189 
3	58 187 188 
3	23 186 187 
3	4 185 186 
3	69 184 185 
3	89 183 184 
3	24 182 183 
3	55 181 182 
3	91 180 181 
3	37 179 180 
3	77 178 179 
3	3 177 178 
3	50 176 177 
3	63 175 176 
3	47 174 175 
3	85 173 174 
3	30 172 173 
3	46 171 172 
3	73 170 171 
3	66 169 170 
3	80 168 169 
3	31 167 168 
3	34 166 167 
3	9 165 166 
3	10 164 165 
3	40 163 164 
3	92 162 163 
3	0 161 162 
3	81 160 161 
3	65 159 160 
3	48 158 159 
3	52 157 158 
3	93 156 157 
3	27 155 156 
3	49 154 155 
3	20 153 154 
3	79 152 153 
3	56 151 152 
3	19 150 151 
1	150 
3	6 62 149 
3	87 148 149 
3	8 147 148 
3	38 146 147 
3	39 145 146 
3	68 144 145 
3	74 143 144 
3	29 142 143 
3	1 141 142 
3	21 140 141 
3	12 139 140 
3	44 138 139 
3	67 137 138 
3	83 136 137 
3	72 135 136 
3	2 134 135 
3	26 133 134 
3	78 132 133 
3	18 131 132 
3	86 130 131 
3	61 129 130 
3	33 128 129 
3	15 127 128 
3	41 126 127 
3	57 125 126 
3	54 124 125 
3	5 123 124 
3	45 122 123 
3	14 121 122 
3	59 120 121 
1	120 
3	31 94 119 
3	22 118 119 
3	34 117 118 
3	51 116 117 
3	11 115 116 
3	25 114 115 
3	64 113 114 
3	60 112 113 
3	17 111 112 
3	7 110 111 
3	13 109 110 
3	36 108 109 
3	76 107 108 
3	32 106 107 
3	35 105 106 
3	92 104 105 
3	43 103 104 
3	70 102 103 
3	75 101 102 
3	90 100 101 
3	30 99 100 
3	28 98 99 
3	53 97 98 
3	84 96 97 
1	96 
1	71 
1	88 
1	38 
1	22 
1	42 
1	16 
1	29 
1	95 
1	21 
1	67 
1	82 
1	17 
1	7 
1	26 
1	36 
1	32 
1	70 
1	58 
1	23 
1	4 
1	53 
1	69 
1	84 
1	89 
1	24 
1	55 
1	39 
1	91 
1	11 
1	37 
1	1 
1	77 
1	44 
1	50 
1	3 
1	60 
1	64 
1	2 
1	63 
1	18 
1	86 
1	47 
1	54 
1	5 
1	45 
1	90 
1	85 
1	30 
1	46 
1	73 
1	66 
1	80 
1	87 
1	8 
1	94 
1	31 
1	34 
1	9 
1	10 
1	83 
1	72 
1	13 
1	78 
1	15 
1	33 
1	40 
1	57 
1	35 
1	92 
1	75 
1	0 
1	81 
1	65 
1	48 
1	52 
1	59 
1	62 
1	6 
1	93 
1	27 
1	49 
1	20 
1	68 
1	74 
1	51 
1	12 
1	25 
1	61 
1	76 
1	41 
1	43 
1	79 
1	14 
1	56 
1	28 
1	19 
0	

8
 1 0 0.1 0.9 0.5 0.5 0.05 0.95
8
 1 0 0 1 0.5 0 0.5 1
2
 0.03 1
8
 1 0 0.9 0.1 0.9 0.1 0.81 0.19
8
 1 0 0 1 0.3 0 0.7 1
8
 1 0 0 1 0.9 0 0.1 1
8
 1 0 0 1 0.3 0 0.7 1
8
 1 0 0 1 0.3 0 0.7 1
8
 1 0 0 1 0.5 0 0.5 1
8
 1 0 0 1 0.3 0 0.7 1
8
 1 0 0 1 0.5 0 0.5 1
8
 1 0 0 1 0.9 0 0.1 1
8
 1 0 0 1 0.3 0 0.7 1
8
 1 0 0 1 0.5 0 0.5 1
8
 1 0 0 1 0.9 0 0.1 1
8
 1 0 0 1 0.5 0 0.5 1
8
 1 0 0 1 0.7 0 0.3 1
8
 1 0 0 1 0.9 0 0.1 1
8
 1 0 0 1 0.9 0 0.1 1
8
 1 0 0 1 0.4 0 0.6 1
8
 1 0 0 1 0.9 0 0.1 1
8
 1 0 0 1 0.9 0 0.1 1
8
 1 0 0 1 0.75 0 0.25 1
8
 1 0 0 1 0.3 0 0.7 1
8
 1 0 0 1 0.9 0 0.1 1
8
 1 0 0 1 0.5 0 0.5 1
8
 1 0 0 1 0.9 0 0.1 1
8
 1 0 0 1 0.3 0 0.7 1
8
 1 0 0 1 0.5 0 0.5 1
8
 1 0 0 1 0.9 0 0.1 1
8
 1 0 0 1 0.9 0 0.1 1
8
 1 0 0 1 0.9 0 0.1 1
8
 1 0 0 1 0.9 0 0.1 1
8
 1 0 0 1 0.3 0 0.7 1
8
 1 0 0 1 0.9 0 0.1 1
8
 1 0 0 1 0.3 0 0.7 1
8
 1 0 0 1 0.5 0 0.5 1
8
 1 0 0 1 0.1 0 0.9 1
8
 1 0 0 1 0.9 0 0.1 1
8
 1 0 0 1 0.89 0 0.11 1
8
 1 0 0 1 0.9 0 0.1 1
8
 1 0 0 1 0.89 0 0.11 1
8
 1 0 0 1 0.5 0 0.5 1
8
 1 0 0 1 0.09 0 0.91 1
8
 1 0 0 1 0.3 0 0.7 1
8
 1 0 0 1 0.4 0 0.6 1
8
 1 0 0 1 0.9 0 0.1 1
2
 0.03 1
8
 1 0 0.89 0.11 0.5 0.5 0.445 0.555
8
 1 0 0 1 0.05 0 0.95 1
8
 1 0 0 1 0.5 0 0.5 1
8
 1 0 0 1 0.5 0 0.5 1
8
 1 0 0 1 0.4 0 0.6 1
8
 1 0 0 1 0.89 0 0.11 1
8
 1 0 0 1 0.5 0 0.5 1
8
 1 0 0 1 0.89 0 0.11 1
8
 1 0 0 1 0.5 0 0.5 1
8
 1 0 0 1 0.5 0 0.5 1
8
 1 0 0 1 0.5 0 0.5 1
8
 1 0 0 1 0.9 0 0.1 1
8
 1 0 0 1 0.5 0 0.5 1
8
 1 0 0 1 0.2 0 0.8 1
8
 1 0 0 1 0.6 0 0.4 1
8
 1 0 0 1 0.5 0 0.5 1
8
 1 0 0 1 0.5 0 0.5 1
8
 1 0 0 1 0.9 0 0.1 1
8
 1 0 0 1 0.89 0 0.11 1
8
 1 0 0 1 0.89 0 0.11 1
8
 1 0 0 1 0.5 0 0.5 1
8
 1 0 0 1 0 0 1 1
8
 1 0 0 1 0.1 0 0.9 1
8
 1 0 0 1 0.7 0 0.3 1
8
 1 0 0 1 0.5 0 0.5 1
8
 1 0 0 1 0.5 0 0.5 1
8
 1 0 0 1 0.5 0 0.5 1
8
 1 0 0 1 0.5 0 0.5 1
8
 1 0 0 1 0.2 0 0.8 1
8
 1 0 0 1 0.5 0 0.5 1
2
 0.03 1
8
 1 0 0.2 0.8 0.5 0.5 0.1 0.9
8
 1 0 0 1 0.5 0 0.5 1
8
 1 0 0 1 0.5 0 0.5 1
8
 1 0 0 1 0.05 0 0.95 1
8
 1 0 0 1 0.5 0 0.5 1
8
 1 0 0 1 0.1 0 0.9 1
8
 1 0 0 1 0.5 0 0.5 1
8
 1 0 0 1 0.01 0 0.99 1
8
 1 0 0 1 0.5 0 0.5 1
8
 1 0 0 1 0.1 0 0.9 1
8
 1 0 0 1 0.09 0 0.91 1
8
 1 0 0 1 0.5 0 0.5 1
8
 1 0 0 1 0.5 0 0.5 1
8
 1 0 0 1 0.5 0 0.5 1
8
 1 0 0 1 0.5 0 0.5 1
8
 1 0 0 1 0.2 0 0.8 1
8
 1 0 0 1 0.05 0 0.95 1
8
 1 0 0 1 0.5 0 0.5 1
8
 1 0 0 1 0.5 0 0.5 1
8
 1 0 0 1 0.05 0 0.95 1
8
 1 0 0 1 0.5 0 0.5 1
8
 1 0 0 1 0.5 0 0.5 1
8
 1 0 0 1 0.5 0 0.5 1
8
 1 0 0 1 0.1 0 0.9 1
2
 0.03 1
2
 0.9995 0.0005
2
 0.999977 2.291e-05
2
 0.9999 0.0001
2
 0.999999 1e-06
2
 0.9991 0.0009
2
 0.99975 0.00025
2
 0.9999 0.0001
2
 1 2e-07
2
 0.999784 0.000216
2
 0.99989 0.00011
2
 0.9999 0.0001
2
 0.9999 0.0001
2
 0.9999 0.0001
2
 0.9999 0.0001
2
 0.999999 6.2e-07
2
 0.9999 0.0001
2
 1 1.2e-07
2
 0.999 0.001
2
 0.9996 0.0004
2
 0.9985 0.0015
2
 0.999997 2.82e-06
2
 0.9999 0.0001
2
 0.99999 1e-05
2
 0.9995 0.0005
2
 0.999998 2e-06
2
 0.9999 0.0001
2
 0.999996 4e-06
2
 1 1.6e-07
2
 0.9994 0.0006
2
 0.99996 4e-05
2
 0.999995 5e-06
2
 0.999907 9.332e-05
2
 0.9999 0.0001
2
 0.9994 0.0006
2
 0.99982 0.00018
2
 0.9996 0.0004
2
 0.99989 0.00011
2
 0.99985 0.00015
2
 0.999969 3.12e-05
2
 0.9999 0.0001
2
 0.9999 0.0001
2
 0.999992 8e-06
2
 0.9995 0.0005
2
 0.9999 0.0001
2
 0.99995 5e-05
2
 0.9999 0.0001
2
 0.9991 0.0009
2
 0.99992 8e-05
2
 0.9999 0.0001
2
 0.99999 1e-05
2
 0.9999 0.0001
2
 0.99998 2e-05
2
 0.99991 9e-05
2
 1 1e-07
2
 0.9995 0.0005
2
 0.9996 0.0004
2
 0.999973 2.7e-05
2
 0.99991 9e-05
2
 0.9999 0.0001
2
 0.9999 0.0001
2
 0.99991 9e-05
2
 0.999 0.001
2
 1 1e-07
2
 0.9998 0.0002
2
 0.9998 0.0002
2
 0.999 0.001
2
 0.9999 0.0001
2
 0.9979 0.0021
2
 0.9998 0.0002
2
 0.9995 0.0005
2
 0.9997 0.0003
2
 0.99922 0.00078
2
 0.9998 0.0002
2
 0.9999 0.0001
2
 0.99993 7e-05
2
 0.9999 0.0001
2
 0.9999 0.0001
2
 0.9991 0.0009
2
 0.9995 0.0005
2
 0.9999 0.0001
2
 0.9999 0.0001
2
 0.99995 5e-05
2
 0.9999 0.0001
2
 0.9999 0.0001
2
 0.9998 0.0002
2
 0.9999 0.0001
2
 0.9996 0.0004
2
 0.99991 9e-05
2
 0.9995 0.0005
2
 1 1e-07
2
 0.9996 0.0004
2
 0.9995 0.0005
2
 0.999999 1e-06
2
 0.9994 0.0006
2
 0.999 0.001
2
 0.9999 0.0001
1
 1

